language ESSENCE' 1.0

letting jobs = 102
letting horizon = 807
letting resourcesRenew = 2
letting resourcesNonrenew = 2
letting resourceLimits = [12, 12, 284, 265]
letting successors = [[2, 3, 6, 7, 9, 13, 15, 16], [30, 22, 21, 20, 17, 12, 11, 10, 5], [20, 14, 8, 4], [27, 23, 21, 18, 12], [36, 32, 29, 28, 27, 26, 24, 19], [34, 32, 30, 29, 27, 25, 18], [36, 32, 29, 28, 26, 19], [29, 26, 12], [29, 19, 18], [35, 34, 31, 23, 18], [36, 28, 26, 19], [36, 28, 19], [39, 37, 36, 35, 33, 32, 28, 26], [34, 32, 31, 29, 28, 27, 26], [39, 36, 35, 32, 31, 28, 26], [41, 39, 34, 32, 31, 30, 25], [39, 36, 34, 33, 31, 25], [39, 37, 36, 33, 28, 26], [39, 34, 33, 31, 25], [35, 33, 31, 29, 26], [39, 36, 33, 32, 26], [36, 33, 32, 26], [47, 46, 44, 42, 41, 39, 38, 36], [46, 45, 38, 35, 33], [47, 46, 45, 42, 38, 35], [52, 50, 47, 46, 45, 43, 42, 41, 38], [57, 52, 50, 47, 44, 42, 41, 40, 37], [57, 56, 54, 53, 52, 50, 47, 46, 42, 41, 40], [56, 53, 52, 50, 47, 46, 45, 43, 42, 40], [54, 52, 47, 44, 42, 40, 37], [57, 52, 45, 40, 37], [59, 54, 53, 52, 51, 50, 47, 44, 43], [59, 54, 53, 52, 51, 48, 47, 44], [56, 52, 46, 43, 42, 40], [57, 56, 52, 50, 43, 40], [54, 50, 49, 43, 40], [59, 53, 51, 49, 46, 43], [57, 56, 55, 53, 51, 48], [56, 52, 43], [60, 59, 55, 51, 48], [60, 59, 55, 51, 48], [61, 60, 55, 49, 48], [74, 61, 60, 58, 55, 48], [66, 61, 56, 55, 49], [74, 65, 63, 62, 60, 58, 54], [65, 62, 61, 60, 58, 55], [74, 63, 61, 60, 55], [70, 69, 68, 66, 65, 64, 63, 62], [74, 70, 67, 64, 63, 58], [66, 65, 55], [76, 75, 74, 67, 61, 58], [76, 74, 71, 70, 69, 68, 67, 63], [76, 75, 72, 69, 67, 65, 60], [70, 69, 67, 64, 61], [82, 71, 69, 68, 67, 64], [76, 74, 72, 69, 68, 60], [82, 68, 67, 64], [81, 80, 73, 72, 71, 69, 68], [88, 82, 75, 73, 71, 67], [94, 88, 82, 81, 77, 73, 71, 70], [88, 82, 81, 80, 78, 77, 72, 71], [88, 82, 75, 73, 67], [88, 82, 81, 79, 78, 77, 73, 72], [89, 88, 81, 76, 75, 73, 72], [94, 88, 81, 78, 77, 71], [88, 85, 81, 80, 77, 72], [101, 94, 85, 81, 80, 78, 77], [88, 87, 83, 79, 77], [101, 94, 93, 85, 84, 78], [101, 93, 87, 85, 84, 78], [100, 89, 87, 83, 79], [100, 94, 93, 90, 87, 84, 83], [101, 100, 98, 87, 85, 83], [101, 87, 85, 84, 80], [101, 100, 98, 93, 87, 83], [98, 93, 85, 83], [100, 98, 96, 93, 92, 89, 86], [100, 98, 96, 89, 83], [101, 93, 85, 84], [98, 97, 96, 92, 90, 86], [100, 99, 91, 84], [99, 98, 97, 96, 92], [97, 92, 86], [98, 97, 96, 92], [97, 96, 90], [99, 91], [96, 92], [96, 91], [97, 95], [91], [95], [95], [95], [95], [102], [102], [102], [102], [102], [102], [102], []]
letting durations = [[0], [5, 7, 7], [7, 8, 9], [2, 3, 9], [5, 6, 9], [8, 8, 8], [3, 4, 5], [3, 4, 6], [3, 3, 8], [6, 6, 8], [7, 8, 8], [7, 9, 9], [4, 9, 10], [2, 10, 10], [1, 3, 5], [4, 5, 5], [1, 4, 9], [3, 5, 10], [2, 2, 6], [2, 6, 9], [1, 5, 9], [3, 9, 10], [6, 8, 9], [1, 8, 10], [1, 3, 6], [1, 5, 8], [4, 7, 10], [3, 4, 9], [2, 7, 10], [2, 4, 7], [2, 3, 4], [1, 2, 7], [1, 1, 3], [4, 6, 7], [2, 3, 6], [3, 5, 8], [5, 7, 9], [1, 2, 10], [6, 7, 9], [3, 8, 10], [2, 4, 5], [3, 5, 10], [5, 5, 7], [6, 7, 9], [5, 8, 9], [1, 8, 9], [3, 8, 9], [5, 6, 9], [7, 9, 9], [5, 6, 9], [1, 2, 6], [7, 9, 10], [4, 6, 8], [2, 5, 10], [5, 7, 9], [3, 5, 7], [3, 9, 10], [3, 3, 10], [4, 5, 9], [4, 4, 8], [3, 7, 7], [1, 7, 10], [2, 2, 5], [6, 8, 8], [3, 7, 10], [2, 3, 4], [3, 4, 7], [2, 5, 7], [2, 7, 7], [5, 6, 9], [1, 9, 10], [1, 2, 6], [3, 4, 7], [2, 4, 10], [1, 3, 6], [5, 6, 8], [8, 9, 9], [1, 5, 8], [6, 7, 9], [5, 5, 5], [6, 8, 9], [1, 5, 9], [2, 7, 7], [2, 6, 7], [2, 6, 7], [1, 4, 6], [1, 3, 4], [2, 5, 7], [6, 7, 10], [1, 3, 8], [3, 5, 8], [1, 8, 8], [2, 7, 10], [3, 3, 7], [4, 8, 10], [1, 4, 10], [7, 7, 9], [1, 7, 10], [1, 4, 8], [2, 4, 8], [3, 8, 10], [0]]
letting resourceUsage = [[[0, 0, 0, 0]], [[0, 2, 4, 0], [0, 1, 0, 4], [3, 0, 2, 0]], [[0, 3, 7, 0], [0, 1, 0, 3], [0, 1, 0, 2]], [[3, 0, 0, 3], [0, 3, 0, 2], [3, 0, 0, 2]], [[0, 3, 6, 0], [4, 0, 0, 3], [2, 0, 6, 0]], [[3, 0, 0, 3], [2, 0, 2, 0], [0, 1, 0, 2]], [[0, 4, 8, 0], [1, 0, 5, 0], [0, 4, 0, 3]], [[3, 0, 0, 6], [2, 0, 0, 4], [1, 0, 4, 0]], [[0, 1, 8, 0], [2, 0, 0, 7], [2, 0, 0, 6]], [[0, 2, 8, 0], [4, 0, 5, 0], [0, 1, 3, 0]], [[0, 5, 0, 6], [3, 0, 0, 6], [0, 3, 2, 0]], [[3, 0, 9, 0], [0, 4, 7, 0], [1, 0, 0, 5]], [[4, 0, 2, 0], [0, 2, 2, 0], [0, 2, 0, 8]], [[5, 0, 5, 0], [3, 0, 4, 0], [0, 1, 2, 0]], [[3, 0, 10, 0], [2, 0, 0, 2], [1, 0, 7, 0]], [[0, 4, 10, 0], [0, 4, 0, 9], [2, 0, 7, 0]], [[3, 0, 0, 1], [3, 0, 5, 0], [0, 1, 0, 1]], [[0, 2, 0, 7], [0, 2, 0, 5], [2, 0, 0, 2]], [[4, 0, 0, 6], [0, 2, 0, 5], [0, 2, 3, 0]], [[2, 0, 7, 0], [0, 1, 6, 0], [0, 1, 5, 0]], [[4, 0, 4, 0], [0, 1, 4, 0], [0, 1, 0, 3]], [[4, 0, 4, 0], [4, 0, 0, 8], [4, 0, 0, 7]], [[0, 3, 8, 0], [2, 0, 5, 0], [2, 0, 3, 0]], [[5, 0, 0, 6], [4, 0, 7, 0], [4, 0, 6, 0]], [[0, 3, 0, 10], [0, 3, 6, 0], [0, 1, 6, 0]], [[0, 3, 0, 9], [0, 1, 0, 7], [0, 1, 6, 0]], [[0, 3, 0, 7], [0, 2, 0, 7], [0, 2, 0, 6]], [[0, 3, 0, 4], [0, 1, 0, 4], [3, 0, 0, 3]], [[0, 4, 0, 9], [0, 3, 2, 0], [4, 0, 2, 0]], [[0, 4, 8, 0], [0, 3, 7, 0], [0, 3, 0, 3]], [[0, 4, 0, 3], [4, 0, 4, 0], [0, 4, 2, 0]], [[0, 4, 4, 0], [0, 3, 4, 0], [0, 2, 0, 2]], [[0, 4, 2, 0], [2, 0, 2, 0], [0, 4, 0, 3]], [[3, 0, 2, 0], [0, 2, 2, 0], [0, 2, 0, 1]], [[5, 0, 4, 0], [0, 3, 0, 2], [0, 3, 1, 0]], [[4, 0, 10, 0], [3, 0, 10, 0], [0, 2, 0, 2]], [[0, 4, 5, 0], [4, 0, 0, 4], [3, 0, 0, 3]], [[5, 0, 9, 0], [4, 0, 0, 4], [4, 0, 7, 0]], [[0, 3, 0, 4], [0, 3, 4, 0], [3, 0, 2, 0]], [[4, 0, 0, 9], [0, 1, 5, 0], [0, 1, 0, 5]], [[2, 0, 0, 8], [0, 5, 3, 0], [1, 0, 0, 4]], [[0, 5, 0, 10], [1, 0, 4, 0], [1, 0, 3, 0]], [[5, 0, 8, 0], [0, 2, 0, 4], [0, 2, 0, 3]], [[0, 4, 0, 5], [0, 2, 0, 3], [0, 2, 5, 0]], [[4, 0, 0, 7], [4, 0, 7, 0], [4, 0, 4, 0]], [[0, 2, 0, 3], [2, 0, 2, 0], [0, 1, 2, 0]], [[0, 2, 7, 0], [4, 0, 0, 3], [0, 1, 6, 0]], [[0, 3, 0, 6], [2, 0, 8, 0], [2, 0, 7, 0]], [[0, 1, 0, 5], [3, 0, 6, 0], [0, 1, 2, 0]], [[0, 4, 0, 7], [0, 3, 0, 7], [2, 0, 0, 5]], [[0, 4, 0, 7], [1, 0, 3, 0], [0, 3, 3, 0]], [[4, 0, 0, 5], [3, 0, 6, 0], [0, 3, 0, 4]], [[3, 0, 0, 4], [0, 1, 5, 0], [2, 0, 5, 0]], [[0, 3, 5, 0], [0, 1, 3, 0], [0, 1, 0, 3]], [[4, 0, 0, 8], [0, 2, 8, 0], [0, 1, 8, 0]], [[0, 2, 9, 0], [4, 0, 0, 7], [0, 1, 7, 0]], [[0, 4, 0, 7], [1, 0, 0, 6], [0, 4, 5, 0]], [[5, 0, 0, 5], [5, 0, 8, 0], [5, 0, 0, 3]], [[0, 4, 0, 9], [0, 3, 6, 0], [2, 0, 0, 9]], [[3, 0, 6, 0], [0, 1, 6, 0], [0, 1, 0, 8]], [[0, 2, 5, 0], [0, 2, 4, 0], [0, 2, 0, 3]], [[0, 3, 5, 0], [0, 2, 3, 0], [4, 0, 3, 0]], [[2, 0, 0, 10], [2, 0, 4, 0], [1, 0, 3, 0]], [[0, 4, 0, 8], [0, 3, 5, 0], [3, 0, 0, 7]], [[0, 3, 1, 0], [0, 1, 0, 7], [1, 0, 0, 7]], [[0, 4, 9, 0], [0, 4, 8, 0], [0, 4, 7, 0]], [[0, 5, 5, 0], [5, 0, 3, 0], [0, 3, 2, 0]], [[0, 3, 0, 7], [2, 0, 7, 0], [0, 3, 7, 0]], [[4, 0, 0, 9], [0, 2, 0, 7], [0, 1, 5, 0]], [[4, 0, 8, 0], [4, 0, 7, 0], [0, 1, 0, 8]], [[3, 0, 2, 0], [0, 3, 2, 0], [0, 1, 2, 0]], [[0, 4, 8, 0], [4, 0, 0, 7], [3, 0, 7, 0]], [[0, 5, 3, 0], [0, 3, 2, 0], [1, 0, 2, 0]], [[0, 4, 0, 7], [0, 3, 8, 0], [0, 2, 7, 0]], [[1, 0, 0, 3], [1, 0, 9, 0], [1, 0, 8, 0]], [[0, 2, 0, 7], [2, 0, 8, 0], [1, 0, 5, 0]], [[3, 0, 6, 0], [2, 0, 0, 3], [0, 4, 0, 1]], [[4, 0, 0, 7], [3, 0, 7, 0], [0, 2, 3, 0]], [[0, 3, 9, 0], [3, 0, 0, 6], [3, 0, 8, 0]], [[0, 4, 0, 9], [4, 0, 7, 0], [3, 0, 0, 4]], [[5, 0, 5, 0], [0, 2, 0, 2], [4, 0, 4, 0]], [[2, 0, 4, 0], [2, 0, 0, 6], [0, 3, 0, 2]], [[3, 0, 0, 6], [0, 3, 0, 5], [2, 0, 0, 5]], [[4, 0, 7, 0], [0, 4, 6, 0], [3, 0, 0, 5]], [[4, 0, 9, 0], [2, 0, 0, 6], [2, 0, 0, 4]], [[4, 0, 8, 0], [3, 0, 6, 0], [0, 2, 0, 4]], [[4, 0, 7, 0], [4, 0, 0, 4], [0, 3, 0, 4]], [[1, 0, 0, 8], [0, 3, 0, 5], [1, 0, 0, 4]], [[4, 0, 4, 0], [0, 5, 0, 6], [3, 0, 2, 0]], [[2, 0, 9, 0], [0, 2, 0, 5], [0, 2, 3, 0]], [[2, 0, 0, 6], [0, 4, 3, 0], [2, 0, 2, 0]], [[0, 3, 5, 0], [0, 3, 0, 7], [0, 3, 4, 0]], [[3, 0, 2, 0], [0, 4, 2, 0], [1, 0, 1, 0]], [[2, 0, 0, 7], [0, 5, 0, 6], [2, 0, 2, 0]], [[1, 0, 0, 4], [1, 0, 0, 3], [1, 0, 0, 2]], [[0, 4, 7, 0], [0, 4, 0, 8], [2, 0, 5, 0]], [[0, 3, 7, 0], [2, 0, 0, 8], [0, 3, 4, 0]], [[4, 0, 8, 0], [0, 3, 7, 0], [3, 0, 3, 0]], [[4, 0, 10, 0], [0, 4, 9, 0], [0, 4, 0, 5]], [[0, 4, 5, 0], [2, 0, 5, 0], [1, 0, 0, 5]], [[3, 0, 0, 8], [0, 3, 6, 0], [3, 0, 2, 0]], [[0, 0, 0, 0]]]
